; PUSH cw_0 ADD SWAP1 SWAP2 POP POP => POP SWAP1 POP
(set-option :produce-proofs true)
; 
(set-info :status unknown)
(declare-fun storage_t ((_ BitVec 256) (_ BitVec 256) (_ BitVec 256) (_ BitVec 256) Int (_ BitVec 256)) (_ BitVec 256))
(declare-fun w_0 () (_ BitVec 256))
(declare-fun storage_s ((_ BitVec 256) (_ BitVec 256) (_ BitVec 256) (_ BitVec 256) Int (_ BitVec 256)) (_ BitVec 256))
(declare-fun exc_halt_t (Int) Bool)
(declare-fun exc_halt_s (Int) Bool)
(declare-fun sc_t (Int) (_ BitVec 6))
(declare-fun stack_t ((_ BitVec 256) (_ BitVec 256) (_ BitVec 256) (_ BitVec 256) Int (_ BitVec 6)) (_ BitVec 256))
(declare-fun stack_s ((_ BitVec 256) (_ BitVec 256) (_ BitVec 256) (_ BitVec 256) Int (_ BitVec 6)) (_ BitVec 256))
(declare-fun sc_s (Int) (_ BitVec 6))
(declare-fun used_gas_t ((_ BitVec 256) (_ BitVec 256) (_ BitVec 256) (_ BitVec 256) Int) Int)
(declare-fun used_gas_s ((_ BitVec 256) (_ BitVec 256) (_ BitVec 256) (_ BitVec 256) Int) Int)
(assert
 (exists ((x_0 (_ BitVec 256)) (x_1 (_ BitVec 256)) (x_2 (_ BitVec 256)) )(let (($x11202 (forall ((w (_ BitVec 256)) )(let ((?x10240 (storage_t x_0 x_1 x_2 w_0 3 w)))
 (let ((?x5737 (storage_s x_0 x_1 x_2 w_0 6 w)))
 (= ?x5737 ?x10240))))
 ))
 (let (($x8325 (exc_halt_t 3)))
 (let (($x772 (exc_halt_s 6)))
 (let (($x10251 (= $x772 $x8325)))
 (let (($x11262 (forall ((n (_ BitVec 6)) )(let ((?x3005 (sc_t 3)))
 (let (($x9001 (bvsle ?x3005 n)))
 (let ((?x118 (stack_t x_0 x_1 x_2 w_0 3 n)))
 (let ((?x4256 (stack_s x_0 x_1 x_2 w_0 6 n)))
 (let (($x3331 (= ?x4256 ?x118)))
 (or $x3331 $x9001)))))))
 ))
 (let ((?x3005 (sc_t 3)))
 (let ((?x926 (sc_s 6)))
 (let (($x3339 (= ?x926 ?x3005)))
 (let ((?x6177 (used_gas_t x_0 x_1 x_2 w_0 0)))
 (let ((?x4822 (used_gas_s x_0 x_1 x_2 w_0 0)))
 (let (($x11269 (= ?x4822 ?x6177)))
 (let (($x9541 (forall ((w (_ BitVec 256)) )(let ((?x1010 (storage_t x_0 x_1 x_2 w_0 0 w)))
 (let ((?x7914 (storage_s x_0 x_1 x_2 w_0 0 w)))
 (= ?x7914 ?x1010))))
 ))
 (let (($x56 (exc_halt_t 0)))
 (let (($x57 (exc_halt_s 0)))
 (let (($x58 (= $x57 $x56)))
 (let (($x11268 (forall ((n (_ BitVec 6)) )(let ((?x63 (sc_t 0)))
 (let (($x10077 (bvsle ?x63 n)))
 (let ((?x2693 (stack_t x_0 x_1 x_2 w_0 0 n)))
 (let ((?x6522 (stack_s x_0 x_1 x_2 w_0 0 n)))
 (let (($x8003 (= ?x6522 ?x2693)))
 (or $x8003 $x10077)))))))
 ))
 (let ((?x63 (sc_t 0)))
 (let ((?x72 (sc_s 0)))
 (let (($x73 (= ?x72 ?x63)))
 (let (($x11242 (= $x8325 (or (exc_halt_t 2) (not (bvsle (_ bv0 6) (bvadd (_ bv63 6) (sc_t 2))))))))
 (let (($x11237 (forall ((w (_ BitVec 256)) )(let ((?x2618 (storage_t x_0 x_1 x_2 w_0 2 w)))
 (let ((?x10240 (storage_t x_0 x_1 x_2 w_0 3 w)))
 (= ?x10240 ?x2618))))
 ))
 (let (($x3241 (forall ((n (_ BitVec 6)) )(let ((?x1364 (stack_t x_0 x_1 x_2 w_0 2 n)))
 (let ((?x118 (stack_t x_0 x_1 x_2 w_0 3 n)))
 (or (bvsle (bvadd (_ bv63 6) (sc_t 2)) n) (= ?x118 ?x1364)))))
 ))
 (let ((?x4056 (sc_t 2)))
 (let ((?x5207 (bvadd (_ bv63 6) ?x4056)))
 (let (($x1546 (= ?x3005 ?x5207)))
 (let (($x11224 (= (used_gas_t x_0 x_1 x_2 w_0 3) (+ 2 (used_gas_t x_0 x_1 x_2 w_0 2)))))
 (let (($x903 (exc_halt_t 2)))
 (let (($x3604 (= $x903 (or (exc_halt_t 1) (not (bvsle (_ bv0 6) (bvadd (_ bv62 6) (sc_t 1))))))))
 (let (($x11215 (forall ((w (_ BitVec 256)) )(let ((?x9886 (storage_t x_0 x_1 x_2 w_0 1 w)))
 (let ((?x2618 (storage_t x_0 x_1 x_2 w_0 2 w)))
 (= ?x2618 ?x9886))))
 ))
 (let (($x11222 (forall ((n (_ BitVec 6)) )(let ((?x10935 (stack_t x_0 x_1 x_2 w_0 1 n)))
 (let ((?x1364 (stack_t x_0 x_1 x_2 w_0 2 n)))
 (let ((?x4023 (sc_t 1)))
 (let ((?x8180 (bvadd (_ bv62 6) ?x4023)))
 (let (($x6372 (bvsle ?x8180 n)))
 (or $x6372 (= ?x1364 ?x10935))))))))
 ))
 (let ((?x4023 (sc_t 1)))
 (let (($x10289 (= ?x4056 ?x4023)))
 (let ((?x10979 (used_gas_t x_0 x_1 x_2 w_0 2)))
 (let (($x11244 (= (stack_t x_0 x_1 x_2 w_0 2 (bvadd (_ bv62 6) ?x4056)) (stack_t x_0 x_1 x_2 w_0 1 (bvadd (_ bv63 6) ?x4023)))))
 (let (($x8457 (= (stack_t x_0 x_1 x_2 w_0 2 ?x5207) (stack_t x_0 x_1 x_2 w_0 1 (bvadd (_ bv62 6) ?x4023)))))
 (let (($x8429 (forall ((w (_ BitVec 256)) )(let ((?x1010 (storage_t x_0 x_1 x_2 w_0 0 w)))
 (let ((?x9886 (storage_t x_0 x_1 x_2 w_0 1 w)))
 (= ?x9886 ?x1010))))
 ))
 (let (($x11196 (forall ((n (_ BitVec 6)) )(let ((?x63 (sc_t 0)))
 (let ((?x7582 (bvadd (_ bv63 6) ?x63)))
 (let (($x9928 (bvsle ?x7582 n)))
 (let ((?x2693 (stack_t x_0 x_1 x_2 w_0 0 n)))
 (let ((?x10935 (stack_t x_0 x_1 x_2 w_0 1 n)))
 (or (= ?x10935 ?x2693) $x9928)))))))
 ))
 (let (($x10115 (= $x772 (or (exc_halt_s 5) (not (bvsle (_ bv0 6) (bvadd (_ bv63 6) (sc_s 5))))))))
 (let (($x11166 (forall ((w (_ BitVec 256)) )(let ((?x4650 (storage_s x_0 x_1 x_2 w_0 5 w)))
 (let ((?x5737 (storage_s x_0 x_1 x_2 w_0 6 w)))
 (= ?x5737 ?x4650))))
 ))
 (let (($x9600 (forall ((n (_ BitVec 6)) )(let ((?x9332 (stack_s x_0 x_1 x_2 w_0 5 n)))
 (let ((?x4256 (stack_s x_0 x_1 x_2 w_0 6 n)))
 (let ((?x805 (sc_s 5)))
 (let ((?x11362 (bvadd (_ bv63 6) ?x805)))
 (let (($x7486 (bvsle ?x11362 n)))
 (or $x7486 (= ?x4256 ?x9332))))))))
 ))
 (let ((?x805 (sc_s 5)))
 (let ((?x11362 (bvadd (_ bv63 6) ?x805)))
 (let (($x7497 (= ?x926 ?x11362)))
 (let (($x7843 (= (used_gas_s x_0 x_1 x_2 w_0 6) (+ 2 (used_gas_s x_0 x_1 x_2 w_0 5)))))
 (let (($x3979 (exc_halt_s 5)))
 (let (($x6362 (= $x3979 (or (exc_halt_s 4) (not (bvsle (_ bv0 6) (bvadd (_ bv63 6) (sc_s 4))))))))
 (let (($x7257 (forall ((w (_ BitVec 256)) )(let ((?x2475 (storage_s x_0 x_1 x_2 w_0 4 w)))
 (let ((?x4650 (storage_s x_0 x_1 x_2 w_0 5 w)))
 (= ?x4650 ?x2475))))
 ))
 (let (($x11168 (forall ((n (_ BitVec 6)) )(let ((?x8421 (stack_s x_0 x_1 x_2 w_0 4 n)))
 (let ((?x9332 (stack_s x_0 x_1 x_2 w_0 5 n)))
 (let ((?x4305 (sc_s 4)))
 (let ((?x11391 (bvadd (_ bv63 6) ?x4305)))
 (let (($x6521 (bvsle ?x11391 n)))
 (or $x6521 (= ?x9332 ?x8421))))))))
 ))
 (let ((?x4305 (sc_s 4)))
 (let ((?x11391 (bvadd (_ bv63 6) ?x4305)))
 (let (($x8273 (= ?x805 ?x11391)))
 (let ((?x7615 (used_gas_s x_0 x_1 x_2 w_0 5)))
 (let (($x64 (exc_halt_s 4)))
 (let (($x1456 (= $x64 (or (exc_halt_s 3) (not (bvsle (_ bv0 6) (bvadd (_ bv61 6) (sc_s 3))))))))
 (let (($x11183 (forall ((w (_ BitVec 256)) )(let ((?x10988 (storage_s x_0 x_1 x_2 w_0 3 w)))
 (let ((?x2475 (storage_s x_0 x_1 x_2 w_0 4 w)))
 (= ?x2475 ?x10988))))
 ))
 (let (($x4026 (forall ((n (_ BitVec 6)) )(let ((?x4541 (stack_s x_0 x_1 x_2 w_0 3 n)))
 (let ((?x8421 (stack_s x_0 x_1 x_2 w_0 4 n)))
 (let ((?x275 (sc_s 3)))
 (let ((?x10434 (bvadd (_ bv61 6) ?x275)))
 (let (($x561 (bvsle ?x10434 n)))
 (or $x561 (= ?x8421 ?x4541))))))))
 ))
 (let ((?x275 (sc_s 3)))
 (let (($x7998 (= ?x4305 ?x275)))
 (let ((?x557 (used_gas_s x_0 x_1 x_2 w_0 4)))
 (let ((?x10563 (bvadd (_ bv62 6) ?x275)))
 (let ((?x10461 (stack_s x_0 x_1 x_2 w_0 3 ?x10563)))
 (let ((?x318 (bvadd (_ bv63 6) ?x275)))
 (let ((?x4039 (stack_s x_0 x_1 x_2 w_0 3 ?x318)))
 (let (($x11287 (= (stack_s x_0 x_1 x_2 w_0 4 ?x11391) (stack_s x_0 x_1 x_2 w_0 3 (bvadd (_ bv61 6) ?x275)))))
 (let (($x292 (exc_halt_s 3)))
 (let (($x9359 (= $x292 (or (exc_halt_s 2) (not (bvsle (_ bv0 6) (bvadd (_ bv62 6) (sc_s 2))))))))
 (let (($x6582 (forall ((w (_ BitVec 256)) )(let ((?x1376 (storage_s x_0 x_1 x_2 w_0 2 w)))
 (let ((?x10988 (storage_s x_0 x_1 x_2 w_0 3 w)))
 (= ?x10988 ?x1376))))
 ))
 (let (($x3051 (forall ((n (_ BitVec 6)) )(let ((?x4208 (stack_s x_0 x_1 x_2 w_0 2 n)))
 (let ((?x4541 (stack_s x_0 x_1 x_2 w_0 3 n)))
 (or (= ?x4541 ?x4208) (bvsle (bvadd (_ bv62 6) (sc_s 2)) n)))))
 ))
 (let ((?x218 (sc_s 2)))
 (let (($x10128 (= ?x275 ?x218)))
 (let ((?x8932 (used_gas_s x_0 x_1 x_2 w_0 3)))
 (let (($x247 (exc_halt_s 2)))
 (let (($x3065 (= $x247 (or (exc_halt_s 1) (not (bvsle (_ bv0 6) (bvadd (_ bv62 6) (sc_s 1))))))))
 (let (($x11286 (forall ((w (_ BitVec 256)) )(let ((?x3538 (storage_s x_0 x_1 x_2 w_0 1 w)))
 (let ((?x1376 (storage_s x_0 x_1 x_2 w_0 2 w)))
 (= ?x1376 ?x3538))))
 ))
 (let (($x3797 (forall ((n (_ BitVec 6)) )(let ((?x154 (sc_s 1)))
 (let ((?x4164 (bvadd (_ bv62 6) ?x154)))
 (let (($x4700 (bvsle ?x4164 n)))
 (let ((?x4715 (stack_s x_0 x_1 x_2 w_0 1 n)))
 (let ((?x4208 (stack_s x_0 x_1 x_2 w_0 2 n)))
 (or (= ?x4208 ?x4715) $x4700)))))))
 ))
 (let ((?x154 (sc_s 1)))
 (let ((?x917 (bvadd (_ bv63 6) ?x154)))
 (let (($x1435 (= ?x218 ?x917)))
 (let ((?x7289 (used_gas_s x_0 x_1 x_2 w_0 2)))
 (let ((?x1048 (bvadd (stack_s x_0 x_1 x_2 w_0 1 ?x917) (stack_s x_0 x_1 x_2 w_0 1 (bvadd (_ bv62 6) ?x154)))))
 (let ((?x1185 (bvadd (_ bv63 6) ?x218)))
 (let ((?x9136 (stack_s x_0 x_1 x_2 w_0 2 ?x1185)))
 (let (($x189 (exc_halt_s 1)))
 (let (($x7671 (= $x189 (or $x57 (not (= ((_ extract 6 6) (bvadd (_ bv1 7) (concat (_ bv0 1) ?x72))) (_ bv0 1)))))))
 (let (($x8559 (forall ((w (_ BitVec 256)) )(let ((?x7914 (storage_s x_0 x_1 x_2 w_0 0 w)))
 (let ((?x3538 (storage_s x_0 x_1 x_2 w_0 1 w)))
 (= ?x3538 ?x7914))))
 ))
 (let (($x9535 (forall ((n (_ BitVec 6)) )(let ((?x6522 (stack_s x_0 x_1 x_2 w_0 0 n)))
 (let ((?x4715 (stack_s x_0 x_1 x_2 w_0 1 n)))
 (let ((?x72 (sc_s 0)))
 (let (($x5211 (bvsle ?x72 n)))
 (or $x5211 (= ?x4715 ?x6522)))))))
 ))
 (let (($x5350 (= ?x154 (bvadd (_ bv1 6) ?x72))))
 (let (($x8192 (forall ((w (_ BitVec 256)) )(let ((?x7914 (storage_s x_0 x_1 x_2 w_0 0 w)))
 (= ?x7914 (_ bv0 256))))
 ))
 (let (($x10007 (= ?x4822 0)))
 (let (($x1898 (not $x57)))
 (let (($x7894 (= (stack_s x_0 x_1 x_2 w_0 0 (_ bv2 6)) x_2)))
 (let (($x4383 (= (stack_s x_0 x_1 x_2 w_0 0 (_ bv1 6)) x_1)))
 (let (($x7143 (= (stack_s x_0 x_1 x_2 w_0 0 (_ bv0 6)) x_0)))
 (let (($x9209 (= ?x72 (_ bv3 6))))
 (and $x9209 $x7143 $x4383 $x7894 $x1898 $x10007 $x8192 (= (stack_s x_0 x_1 x_2 w_0 1 ?x72) w_0) (= (used_gas_s x_0 x_1 x_2 w_0 1) (+ 3 ?x4822)) $x5350 $x9535 $x8559 $x7671 (= ?x9136 ?x1048) (= ?x7289 (+ 3 (used_gas_s x_0 x_1 x_2 w_0 1))) $x1435 $x3797 $x11286 $x3065 (= ?x4039 (stack_s x_0 x_1 x_2 w_0 2 (bvadd (_ bv62 6) ?x218))) (= ?x10461 ?x9136) (= ?x8932 (+ 3 ?x7289)) $x10128 $x3051 $x6582 $x9359 $x11287 (= (stack_s x_0 x_1 x_2 w_0 4 (bvadd (_ bv61 6) ?x4305)) ?x4039) (= (stack_s x_0 x_1 x_2 w_0 4 (bvadd (_ bv62 6) ?x4305)) ?x10461) (= ?x557 (+ 3 ?x8932)) $x7998 $x4026 $x11183 $x1456 (= ?x7615 (+ 2 ?x557)) $x8273 $x11168 $x7257 $x6362 $x7843 $x7497 $x9600 $x11166 $x10115 (= (used_gas_t x_0 x_1 x_2 w_0 1) (+ 2 ?x6177)) (= ?x4023 (bvadd (_ bv63 6) ?x63)) $x11196 $x8429 (= (exc_halt_t 1) (or $x56 (not (bvsle (_ bv0 6) (bvadd (_ bv63 6) ?x63))))) $x8457 $x11244 (= ?x10979 (+ 3 (used_gas_t x_0 x_1 x_2 w_0 1))) $x10289 $x11222 $x11215 $x3604 $x11224 $x1546 $x3241 $x11237 $x11242 $x73 $x11268 $x58 $x9541 $x11269 (not (and $x3339 $x11262 $x10251 $x11202))))))))))))))))))))))))))))))))))))))))))))))))))))))))))))))))))))))))))))))))))))))))))))))))))
 )
(check-sat)
(get-proof)
